============================[ Problem Statistics ]=============================|                                                                             ||  Number of variables:          4242                                         ||  Number of clauses:            9800                                         ||  Parse time:                   0.27 s                                       ||                                                                             |============================[ Search Statistics ]==============================| Conflicts |          ORIGINAL         |          LEARNT          | Progress ||           |    Vars  Clauses Literals |    Limit  Clauses Lit/Cl |          |===============================================================================|       100 |    1591     6005   301356 |     2201      100     53 | 62.501 % |===============================================================================restarts              : 2conflicts             : 119            (279 /sec)decisions             : 292            (0.00 % random) (685 /sec)propagations          : 9892           (23221 /sec)conflict literals     : 6952           (95.71 % deleted)CPU time              : 0.426 sSATISFIABLE